c Grid graph 3x14
p edge 42 67
e 1 2
e 1 15
e 2 3
e 2 16
e 3 4
e 3 17
e 4 5
e 4 18
e 5 6
e 5 19
e 6 7
e 6 20
e 7 8
e 7 21
e 8 9
e 8 22
e 9 10
e 9 23
e 10 11
e 10 24
e 11 12
e 11 25
e 12 13
e 12 26
e 13 14
e 13 27
e 14 28
e 15 16
e 15 29
e 16 17
e 16 30
e 17 18
e 17 31
e 18 19
e 18 32
e 19 20
e 19 33
e 20 21
e 20 34
e 21 22
e 21 35
e 22 23
e 22 36
e 23 24
e 23 37
e 24 25
e 24 38
e 25 26
e 25 39
e 26 27
e 26 40
e 27 28
e 27 41
e 28 42
e 29 30
e 30 31
e 31 32
e 32 33
e 33 34
e 34 35
e 35 36
e 36 37
e 37 38
e 38 39
e 39 40
e 40 41
e 41 42
